c Output_time 26.03.2020 18:15:23_+0100 1585242923617872106
c ** Program information **
c program_name                          "QBRG_debug"
c version                               "0.3.20"
c date                                  "25.3.2020"
c gid_id                                "673970833836058123f633335630c185360d632e"
c author                                "Oliver Kullmann"
c url                                   "https://github.com/OKullmann/oklibrary/blob/master/Satisfiability/Transformers/Generators/Random/QBRG.cpp"
c ** Machine information **
c machine_name                          "chyna-Lenovo-G50-70"
c bogomips                              3791.08
c ** Compilation information **
c compiler_version                      "g++ 7.5.0"
c compilation_date                      "Mar_26_2020 11:16:30"
c compilation_options                   "--std=c++17 -pedantic -fmax-errors=5 -Wall -Wextra -g -D_GLIBCXX_DEBUG"
c NDEBUG                                0
c OPTIMIZE                              0
c ** Parameters **
c command-line                          "./QBRG_debug" "a40 e40 a40 40" "487*1,1|2-2,1|3-3,1|4-4,1" "" "1,t" ""
c output                                "QuBlRaGe_160_487_1585242923509159370.qdimacs"
c options                               "filtered,renamed"
c num_quantifier_blocks                 4
c  quantifier_blocks                    1:a1-40 2:e41-80 3:a81-120 4:e121-160
c num_clause-blocks                     1
c  clause-blocks                        487 * {1-40,1,1/2} | {41-80,1,1/2} | {81-120,1,1/2} | {121-160,1,1/2}
c num_e-seeds                           37+2=39
c  e-seeds                              1 0 1 0 5 160 2 40 0 40 1 40 0 40 1 487 4 1 1 1 1 2 2 2 1 1 2 3 3 1 1 2 4 4 1 1 2 1 1585242923509158511
p cnf 160 487
a 1 2 3 4 5 6 7 8 9 10 11 12 13 14 15 16 17 18 19 20 21 22 23 24 25 26 27 28 29 30 31 32 33 34 35 36 37 38 39 40 0
e 41 42 43 44 45 46 47 48 49 50 51 52 53 54 55 56 57 58 59 60 61 62 63 64 65 66 67 68 69 70 71 72 73 74 75 76 77 78 79 80 0
a 81 82 83 84 85 86 87 88 89 90 91 92 93 94 95 96 97 98 99 100 101 102 103 104 105 106 107 108 109 110 111 112 113 114 115 116 117 118 119 120 0
e 121 122 123 124 125 126 127 128 129 130 131 132 133 134 135 136 137 138 139 140 141 142 143 144 145 146 147 148 149 150 151 152 153 154 155 156 157 158 159 160 0
-35 -65 81 -121 0
34 56 88 -121 0
-39 76 -95 -121 0
-4 79 99 -121 0
-34 -48 108 -121 0
12 55 -85 121 0
22 42 -90 121 0
-28 -64 -92 121 0
29 54 105 121 0
-33 79 107 121 0
10 -70 -112 121 0
7 -48 -114 121 0
35 75 -119 121 0
29 -60 120 121 0
19 70 -82 -122 0
-9 -69 -93 -122 0
-30 69 -101 -122 0
-20 49 101 -122 0
18 -59 -104 -122 0
26 41 -109 -122 0
-18 75 83 122 0
-6 74 88 122 0
17 80 -93 122 0
-24 71 108 122 0
-28 -75 113 122 0
26 -64 89 -123 0
-2 -45 91 -123 0
-1 44 -105 -123 0
22 71 105 -123 0
-24 71 115 -123 0
17 56 81 123 0
30 -66 115 123 0
7 63 -118 123 0
-13 59 -90 -124 0
28 75 -101 -124 0
-37 76 -112 -124 0
-20 59 -113 -124 0
-36 -50 -117 -124 0
-27 74 -86 124 0
26 75 -91 124 0
25 46 95 124 0
-16 -57 97 124 0
12 -52 105 124 0
-30 -43 113 124 0
40 77 98 -125 0
33 -56 -88 125 0
7 57 -101 125 0
-23 -55 101 125 0
38 60 118 125 0
-20 62 -91 -126 0
12 -66 94 -126 0
31 -55 -97 -126 0
20 56 -105 -126 0
4 44 106 -126 0
-31 -69 -115 -126 0
16 -69 116 -126 0
-39 75 120 -126 0
10 44 -86 126 0
9 -49 101 126 0
-1 -72 -117 126 0
-40 54 120 126 0
17 -67 83 -127 0
-24 62 -84 -127 0
28 -43 -90 -127 0
-8 61 -98 -127 0
-13 -51 -103 -127 0
-22 50 103 -127 0
35 73 110 -127 0
4 56 115 -127 0
26 -59 -119 -127 0
12 -44 -82 127 0
6 78 -82 127 0
-20 -74 -97 127 0
7 66 98 127 0
38 73 98 127 0
13 72 100 127 0
20 -48 114 127 0
-1 -69 -115 127 0
-21 72 -117 127 0
20 49 -85 -128 0
-35 -74 -97 -128 0
-12 43 -106 -128 0
-4 -69 115 -128 0
-19 60 -82 128 0
-31 -63 82 128 0
-3 47 -83 128 0
16 -78 -94 128 0
7 -53 -110 128 0
-34 -46 -114 128 0
37 50 116 128 0
-12 -72 -120 128 0
9 49 82 -129 0
-38 47 -89 -129 0
-37 44 89 -129 0
10 80 89 -129 0
16 79 -92 -129 0
-4 -58 99 -129 0
32 77 -108 -129 0
17 43 -109 -129 0
16 -52 -111 -129 0
-3 74 97 129 0
37 -41 -107 129 0
38 78 -107 129 0
3 -71 -113 129 0
30 50 -82 -130 0
-23 -58 88 -130 0
-36 73 -98 -130 0
-1 -58 100 -130 0
-28 -62 101 -130 0
31 -78 102 -130 0
9 51 -106 -130 0
38 77 91 130 0
-13 -59 101 130 0
6 77 -103 130 0
-39 -66 104 130 0
-15 74 110 130 0
-40 -54 116 130 0
-21 -71 87 -131 0
14 -47 -90 -131 0
11 69 -90 -131 0
-40 -58 -94 -131 0
-7 48 -101 -131 0
-33 44 82 131 0
28 60 85 131 0
2 -72 85 131 0
14 -42 87 131 0
39 -50 -91 131 0
33 -48 91 131 0
-25 -75 -101 131 0
-8 76 -107 131 0
-21 -54 -109 131 0
-22 72 -109 131 0
12 64 -111 131 0
16 -75 -90 -132 0
-25 50 -92 -132 0
-25 44 -96 -132 0
28 -53 -97 -132 0
-29 -69 -102 -132 0
-34 68 -103 -132 0
-35 44 -115 -132 0
24 -42 -119 -132 0
-6 69 88 132 0
27 71 94 132 0
14 -61 -100 132 0
-12 -67 -87 -133 0
-14 55 -99 -133 0
21 -41 -100 -133 0
-31 56 113 -133 0
-36 -58 113 -133 0
12 48 -115 -133 0
19 71 -116 -133 0
32 44 -119 -133 0
9 -78 81 133 0
-21 -44 -86 133 0
-11 -76 -86 133 0
15 -74 87 133 0
1 51 94 133 0
-3 65 -95 133 0
23 -73 101 133 0
-3 57 -82 -134 0
14 73 -87 -134 0
-2 56 88 -134 0
-40 54 -89 -134 0
-25 47 89 -134 0
-22 46 116 -134 0
-26 -45 117 -134 0
-5 -70 117 -134 0
-9 79 119 -134 0
-39 43 -83 134 0
10 47 99 134 0
-22 65 -100 134 0
5 -71 -109 134 0
38 68 -120 134 0
-4 74 81 -135 0
16 -80 -84 -135 0
-10 79 -108 -135 0
-13 -70 111 -135 0
-25 -49 112 -135 0
-11 52 82 135 0
24 69 83 135 0
6 57 -87 135 0
3 -77 -87 135 0
-1 -66 87 135 0
-5 -73 87 135 0
-21 -65 -91 135 0
-19 72 95 135 0
-20 -53 -101 135 0
-5 -73 115 135 0
-12 59 -117 135 0
-4 -52 -119 135 0
21 -44 85 -136 0
28 49 -89 -136 0
-12 78 91 -136 0
32 51 -111 -136 0
35 73 115 -136 0
33 -76 118 -136 0
-31 54 -119 -136 0
-31 -46 -82 136 0
-6 -50 96 136 0
-8 -61 107 136 0
2 45 -113 136 0
33 79 -115 136 0
37 -64 -84 -137 0
30 75 -108 -137 0
7 -43 -110 -137 0
8 67 -83 137 0
-1 58 93 137 0
19 72 -100 137 0
-18 -45 101 137 0
31 57 -109 137 0
-36 -61 -113 137 0
29 -52 83 -138 0
-29 -63 101 -138 0
23 -78 -108 -138 0
-17 -63 -109 -138 0
-36 -47 111 -138 0
6 -66 111 -138 0
6 49 117 -138 0
-27 -73 119 -138 0
17 -57 -84 138 0
20 -67 87 138 0
23 -65 -93 138 0
-29 -47 96 138 0
-17 65 101 138 0
-23 75 101 138 0
-19 -79 118 138 0
-33 -70 94 -139 0
40 41 97 -139 0
12 48 104 -139 0
-35 60 107 -139 0
-29 44 102 139 0
6 72 107 139 0
3 55 116 139 0
20 -42 -117 139 0
12 69 -119 139 0
3 -67 -81 -140 0
19 53 95 -140 0
37 -43 101 -140 0
10 62 -104 -140 0
-26 44 114 -140 0
-22 -76 -120 -140 0
-30 43 -84 140 0
7 -67 84 140 0
29 -80 92 140 0
1 74 103 140 0
21 53 -111 140 0
21 -71 -112 140 0
5 58 87 -141 0
-32 -75 90 -141 0
8 58 -96 -141 0
-23 -53 106 -141 0
39 70 115 -141 0
24 -74 -83 141 0
-33 57 -95 141 0
-26 76 102 141 0
-15 -65 -110 141 0
2 48 -116 141 0
-40 -56 95 -142 0
-19 41 -105 -142 0
28 60 -83 142 0
-14 -49 -90 142 0
21 60 -94 142 0
-11 -72 -101 142 0
38 62 101 142 0
-10 -49 -104 142 0
37 49 106 142 0
4 42 -107 142 0
4 44 113 142 0
-4 -80 119 142 0
-32 -41 120 142 0
-38 47 -84 -143 0
24 -45 -86 -143 0
40 -54 -90 -143 0
-3 -48 95 -143 0
30 69 -105 -143 0
29 44 -120 -143 0
10 -56 -87 143 0
8 -62 -104 143 0
-11 -64 -106 143 0
-25 -58 94 -144 0
20 -43 95 -144 0
17 -47 106 -144 0
-24 -65 107 -144 0
40 69 114 -144 0
-32 -61 -120 -144 0
-20 68 -120 -144 0
39 52 -85 144 0
37 80 97 144 0
-7 64 114 144 0
31 69 115 144 0
6 50 -84 -145 0
32 -74 93 -145 0
32 55 -97 -145 0
-23 -48 99 -145 0
-12 -42 -103 -145 0
12 45 103 -145 0
38 48 108 -145 0
-6 -61 -112 -145 0
-29 43 112 -145 0
-16 -57 112 -145 0
36 63 -113 -145 0
-24 59 119 -145 0
16 -60 120 -145 0
27 67 89 145 0
38 42 -95 145 0
-1 -71 -98 145 0
-24 -56 102 145 0
24 -69 106 145 0
7 59 112 145 0
39 66 -118 145 0
14 -53 120 145 0
24 75 95 -146 0
-26 -46 -104 -146 0
-39 61 -113 -146 0
-12 77 117 -146 0
13 54 -82 146 0
1 -77 88 146 0
-23 -51 111 146 0
4 -73 -82 -147 0
11 -47 82 -147 0
22 69 88 -147 0
19 57 95 -147 0
2 41 -102 -147 0
26 43 107 -147 0
16 72 -117 -147 0
-13 61 99 147 0
-32 -70 -103 147 0
38 -41 110 147 0
13 -48 -117 147 0
-17 -76 -89 -148 0
-15 -47 -91 -148 0
30 53 98 -148 0
-40 -79 99 -148 0
-11 72 -103 -148 0
19 -62 107 -148 0
28 62 -115 -148 0
24 76 -117 -148 0
-35 -77 82 148 0
-32 -68 109 -149 0
-23 -69 -111 -149 0
-14 49 -117 -149 0
11 -65 -90 149 0
-11 -74 -93 149 0
22 -59 -112 149 0
-37 46 -118 149 0
-27 -76 120 149 0
-38 55 -81 -150 0
14 -54 84 -150 0
23 55 -91 -150 0
1 73 93 -150 0
28 76 95 -150 0
36 52 101 -150 0
-35 -42 114 -150 0
20 -66 -119 -150 0
-36 45 -90 150 0
23 73 90 150 0
5 70 103 150 0
31 69 -104 150 0
4 -66 -109 150 0
3 -65 -104 -151 0
-25 -61 -109 -151 0
-22 -60 -115 -151 0
-19 74 118 -151 0
13 -41 -81 151 0
12 -67 -85 151 0
19 -46 -92 151 0
-30 -59 -104 151 0
-4 60 105 151 0
2 -48 -109 151 0
35 57 -93 -152 0
8 61 103 -152 0
4 -55 108 -152 0
-9 -60 115 -152 0
8 80 -118 -152 0
-17 -47 -95 152 0
-36 -64 95 152 0
-22 -67 96 152 0
21 73 97 152 0
5 60 -84 -153 0
-40 -44 -89 -153 0
-2 70 98 -153 0
18 57 -103 -153 0
23 -47 107 -153 0
-2 -52 116 -153 0
-6 57 116 -153 0
23 58 -117 -153 0
-31 -62 118 -153 0
39 71 -84 153 0
-7 -47 90 153 0
7 -67 -99 153 0
-16 -65 -103 153 0
26 59 113 153 0
40 -60 -118 153 0
-12 77 84 -154 0
-33 70 -98 -154 0
37 45 99 -154 0
3 70 100 -154 0
8 65 -102 -154 0
-4 41 -105 -154 0
6 -51 108 -154 0
-26 77 108 -154 0
-11 80 -110 -154 0
25 -68 -120 -154 0
40 -71 83 154 0
-40 66 84 154 0
-34 -48 94 154 0
-3 56 104 154 0
1 80 -106 154 0
27 -43 -109 154 0
21 67 109 154 0
32 -62 110 154 0
-1 54 112 154 0
-21 41 -119 154 0
14 -47 -92 -155 0
23 -50 -92 -155 0
-37 -77 -99 -155 0
5 55 100 -155 0
23 68 101 -155 0
-25 78 -106 -155 0
40 -79 -111 -155 0
5 72 113 -155 0
18 58 -119 -155 0
3 51 -96 155 0
18 61 97 155 0
-26 71 83 -156 0
6 -63 86 -156 0
31 -47 94 -156 0
24 61 -96 -156 0
-38 46 108 -156 0
-29 -63 109 -156 0
17 -60 111 -156 0
-29 44 -91 156 0
-39 -56 -93 156 0
-31 -42 103 156 0
-38 -44 -107 156 0
32 50 -107 156 0
13 43 -108 156 0
16 49 85 -157 0
-20 -50 86 -157 0
-22 71 -92 -157 0
-26 -72 94 -157 0
-27 -51 -105 -157 0
-8 57 -106 -157 0
24 41 -118 -157 0
-36 -41 119 -157 0
17 59 -83 157 0
-13 -60 87 157 0
-15 -53 93 157 0
-33 -74 -101 157 0
-21 -55 -106 157 0
-13 -56 109 157 0
22 -67 -82 -158 0
33 51 -118 -158 0
-28 -70 118 -158 0
-10 52 -119 -158 0
-2 46 -120 -158 0
-23 48 -85 158 0
30 -43 -96 158 0
-32 -76 -99 158 0
-23 56 116 158 0
5 -41 -120 158 0
-30 54 -84 -159 0
28 -56 -86 -159 0
2 57 -87 -159 0
7 42 88 -159 0
11 -70 -89 -159 0
-1 -66 -94 -159 0
31 49 99 -159 0
26 -66 -101 -159 0
-16 62 -115 -159 0
-1 70 -88 159 0
-23 66 -93 159 0
-6 -46 93 159 0
-5 73 97 159 0
3 76 -99 159 0
22 78 -109 159 0
20 76 -112 159 0
-9 -56 -113 159 0
30 -62 -87 -160 0
-29 54 -97 -160 0
12 -58 -102 -160 0
-6 -74 110 -160 0
-38 58 112 -160 0
-6 -41 -113 -160 0
6 -54 -116 -160 0
22 80 -107 160 0
9 -41 -120 160 0
